
220.0
220.0
220.0
220.0
220.0
220.0
220.0
220.0
220.0
370.0
240.0
220.0
220.0
220.0
220.0
220.0
220.0
220.0
220.0
400.0
220.0
220.0
220.0
220.0
220.0
220.0
240.0
220.0
220.0
220.0
220.0
220.0
220.0
220.0
220.0
220.0
220.0
220.0
220.0
220.0
220.0
220.0
220.0
220.0
230.0
220.0
220.0
220.0
350.0
220.0